unsat
( _c0
  _c1000
  _c1001
  _c1002
  _c1019
  _c1020
  _c1021
  _c1022
  _c1024
  _c1026
  _c1028
  _c1030
  _c1031
  _c1032
  _c1038
  _c1042
  _c1043
  _c1044
  _c1054
  _c1055
  _c1056
  _c1136
  _c1137
  _c1140
  _c1142
  _c1150
  _c1189
  _c1190
  _c1191
  _c1245
  _c1246
  _c1247
  _c1248
  _c1249
  _c1250
  _c1251
  _c1252
  _c1454
  _c1455
  _c146
  _c1462
  _c1463
  _c150
  _c154
  _c203
  _c206
  _c73
  _c74
  _c75
  _c77
  _c807
  _c808
  _c809
  _c852
  _c853
  _c963
  _c964
  _c965
  _c968
  _c983 )
